p cnf 200 1110
-101 67 0
-101 -16 0
-101 7 0
-101 99 0
-101 -47 0
-101 -20 0
-101 53 0
-101 46 0
-101 51 0
-101 26 0
101 -67 16 -7 -99 47 20 -53 -46 -51 -26 0
-102 95 0
-102 -29 0
-102 72 0
-102 90 0
-102 73 0
-102 2 0
-102 -48 0
-102 78 0
-102 83 0
-102 -4 0
102 -95 29 -72 -90 -73 -2 48 -78 -83 4 0
-103 99 0
-103 27 0
-103 64 0
-103 85 0
-103 18 0
-103 86 0
-103 -93 0
-103 -15 0
-103 25 0
-103 17 0
103 -99 -27 -64 -85 -18 -86 93 15 -25 -17 0
-104 18 0
-104 21 0
-104 -42 0
-104 -93 0
-104 -5 0
-104 -57 0
-104 64 0
-104 -79 0
-104 44 0
-104 -88 0
104 -18 -21 42 93 5 57 -64 79 -44 88 0
-105 6 0
-105 61 0
-105 -48 0
-105 -70 0
-105 -56 0
-105 35 0
-105 40 0
-105 9 0
-105 -11 0
-105 -16 0
105 -6 -61 48 70 56 -35 -40 -9 11 16 0
-106 14 0
-106 24 0
-106 7 0
-106 20 0
-106 -22 0
-106 47 0
-106 93 0
-106 62 0
-106 -16 0
-106 -91 0
106 -14 -24 -7 -20 22 -47 -93 -62 16 91 0
-107 -95 0
-107 57 0
-107 -64 0
-107 -32 0
-107 68 0
-107 -60 0
-107 10 0
-107 98 0
-107 90 0
-107 63 0
107 95 -57 64 32 -68 60 -10 -98 -90 -63 0
-108 -53 0
-108 -6 0
-108 30 0
-108 29 0
-108 -57 0
-108 28 0
-108 52 0
-108 50 0
-108 -34 0
-108 100 0
108 53 6 -30 -29 57 -28 -52 -50 34 -100 0
-109 -10 0
-109 100 0
-109 -80 0
-109 -55 0
-109 19 0
-109 71 0
-109 95 0
-109 41 0
-109 -74 0
-109 62 0
109 10 -100 80 55 -19 -71 -95 -41 74 -62 0
-110 -58 0
-110 73 0
-110 -33 0
-110 74 0
-110 34 0
-110 -30 0
-110 -88 0
-110 16 0
-110 -49 0
-110 -2 0
110 58 -73 33 -74 -34 30 88 -16 49 2 0
101 102 103 104 105 106 107 108 109 110 0
-111 34 0
-111 49 0
-111 20 0
-111 -91 0
-111 9 0
-111 -52 0
-111 95 0
-111 -43 0
-111 -84 0
-111 -80 0
111 -34 -49 -20 91 -9 52 -95 43 84 80 0
-112 80 0
-112 25 0
-112 -58 0
-112 -20 0
-112 -78 0
-112 -88 0
-112 -49 0
-112 -24 0
-112 90 0
-112 -5 0
112 -80 -25 58 20 78 88 49 24 -90 5 0
-113 18 0
-113 -51 0
-113 -39 0
-113 28 0
-113 81 0
-113 -57 0
-113 82 0
-113 -34 0
-113 -8 0
-113 24 0
113 -18 51 39 -28 -81 57 -82 34 8 -24 0
-114 24 0
-114 -73 0
-114 18 0
-114 -60 0
-114 -12 0
-114 -36 0
-114 10 0
-114 -61 0
-114 -32 0
-114 -22 0
114 -24 73 -18 60 12 36 -10 61 32 22 0
-115 82 0
-115 61 0
-115 41 0
-115 48 0
-115 -58 0
-115 -28 0
-115 -69 0
-115 -93 0
-115 76 0
-115 -22 0
115 -82 -61 -41 -48 58 28 69 93 -76 22 0
-116 6 0
-116 83 0
-116 87 0
-116 53 0
-116 18 0
-116 45 0
-116 14 0
-116 -93 0
-116 90 0
-116 -4 0
116 -6 -83 -87 -53 -18 -45 -14 93 -90 4 0
-117 -36 0
-117 -21 0
-117 33 0
-117 8 0
-117 -59 0
-117 -37 0
-117 -100 0
-117 -25 0
-117 63 0
-117 7 0
117 36 21 -33 -8 59 37 100 25 -63 -7 0
-118 41 0
-118 96 0
-118 -77 0
-118 80 0
-118 5 0
-118 -50 0
-118 90 0
-118 -58 0
-118 79 0
-118 -81 0
118 -41 -96 77 -80 -5 50 -90 58 -79 81 0
-119 11 0
-119 89 0
-119 49 0
-119 20 0
-119 -12 0
-119 -92 0
-119 88 0
-119 81 0
-119 48 0
-119 15 0
119 -11 -89 -49 -20 12 92 -88 -81 -48 -15 0
-120 65 0
-120 -86 0
-120 80 0
-120 -92 0
-120 20 0
-120 58 0
-120 21 0
-120 -7 0
-120 97 0
-120 -18 0
120 -65 86 -80 92 -20 -58 -21 7 -97 18 0
111 112 113 114 115 116 117 118 119 120 0
-121 -61 0
-121 90 0
-121 19 0
-121 18 0
-121 1 0
-121 59 0
-121 -70 0
-121 69 0
-121 -76 0
-121 5 0
121 61 -90 -19 -18 -1 -59 70 -69 76 -5 0
-122 25 0
-122 -17 0
-122 11 0
-122 -28 0
-122 -81 0
-122 -76 0
-122 34 0
-122 -58 0
-122 -68 0
-122 49 0
122 -25 17 -11 28 81 76 -34 58 68 -49 0
-123 69 0
-123 20 0
-123 52 0
-123 -42 0
-123 -23 0
-123 28 0
-123 74 0
-123 82 0
-123 3 0
-123 30 0
123 -69 -20 -52 42 23 -28 -74 -82 -3 -30 0
-124 -81 0
-124 -62 0
-124 -88 0
-124 33 0
-124 66 0
-124 -58 0
-124 -40 0
-124 72 0
-124 79 0
-124 -2 0
124 81 62 88 -33 -66 58 40 -72 -79 2 0
-125 34 0
-125 -55 0
-125 -66 0
-125 42 0
-125 22 0
-125 86 0
-125 -88 0
-125 100 0
-125 -84 0
-125 50 0
125 -34 55 66 -42 -22 -86 88 -100 84 -50 0
-126 -5 0
-126 -47 0
-126 -74 0
-126 -4 0
-126 -16 0
-126 -99 0
-126 17 0
-126 39 0
-126 -100 0
-126 -81 0
126 5 47 74 4 16 99 -17 -39 100 81 0
-127 -25 0
-127 -74 0
-127 79 0
-127 6 0
-127 -59 0
-127 77 0
-127 -36 0
-127 57 0
-127 16 0
-127 75 0
127 25 74 -79 -6 59 -77 36 -57 -16 -75 0
-128 -18 0
-128 71 0
-128 -28 0
-128 -51 0
-128 -73 0
-128 -31 0
-128 9 0
-128 -57 0
-128 10 0
-128 64 0
128 18 -71 28 51 73 31 -9 57 -10 -64 0
-129 -76 0
-129 -75 0
-129 -47 0
-129 -36 0
-129 48 0
-129 82 0
-129 -2 0
-129 -8 0
-129 40 0
-129 -95 0
129 76 75 47 36 -48 -82 2 8 -40 95 0
-130 -37 0
-130 -84 0
-130 35 0
-130 52 0
-130 28 0
-130 -26 0
-130 -11 0
-130 -59 0
-130 100 0
-130 -20 0
130 37 84 -35 -52 -28 26 11 59 -100 20 0
121 122 123 124 125 126 127 128 129 130 0
-131 -14 0
-131 79 0
-131 -24 0
-131 -10 0
-131 47 0
-131 -39 0
-131 13 0
-131 -30 0
-131 -68 0
-131 -82 0
131 14 -79 24 10 -47 39 -13 30 68 82 0
-132 -98 0
-132 75 0
-132 -44 0
-132 76 0
-132 -27 0
-132 55 0
-132 63 0
-132 -80 0
-132 -53 0
-132 -36 0
132 98 -75 44 -76 27 -55 -63 80 53 36 0
-133 39 0
-133 98 0
-133 -54 0
-133 20 0
-133 63 0
-133 -53 0
-133 -94 0
-133 14 0
-133 29 0
-133 3 0
133 -39 -98 54 -20 -63 53 94 -14 -29 -3 0
-134 -70 0
-134 89 0
-134 94 0
-134 22 0
-134 33 0
-134 9 0
-134 -10 0
-134 -51 0
-134 -59 0
-134 -11 0
134 70 -89 -94 -22 -33 -9 10 51 59 11 0
-135 13 0
-135 7 0
-135 96 0
-135 31 0
-135 -18 0
-135 80 0
-135 -83 0
-135 -21 0
-135 -49 0
-135 -53 0
135 -13 -7 -96 -31 18 -80 83 21 49 53 0
-136 -37 0
-136 -39 0
-136 -90 0
-136 -31 0
-136 -77 0
-136 82 0
-136 -55 0
-136 24 0
-136 -28 0
-136 -46 0
136 37 39 90 31 77 -82 55 -24 28 46 0
-137 -40 0
-137 -52 0
-137 -19 0
-137 -81 0
-137 85 0
-137 94 0
-137 -49 0
-137 28 0
-137 -37 0
-137 -97 0
137 40 52 19 81 -85 -94 49 -28 37 97 0
-138 16 0
-138 3 0
-138 -47 0
-138 -53 0
-138 -97 0
-138 99 0
-138 41 0
-138 73 0
-138 58 0
-138 27 0
138 -16 -3 47 53 97 -99 -41 -73 -58 -27 0
-139 -67 0
-139 72 0
-139 -21 0
-139 -13 0
-139 -10 0
-139 -46 0
-139 83 0
-139 -20 0
-139 -51 0
-139 18 0
139 67 -72 21 13 10 46 -83 20 51 -18 0
-140 -59 0
-140 -18 0
-140 -55 0
-140 -70 0
-140 27 0
-140 41 0
-140 -58 0
-140 32 0
-140 8 0
-140 -7 0
140 59 18 55 70 -27 -41 58 -32 -8 7 0
131 132 133 134 135 136 137 138 139 140 0
-141 75 0
-141 86 0
-141 -67 0
-141 76 0
-141 23 0
-141 -28 0
-141 32 0
-141 33 0
-141 -15 0
-141 92 0
141 -75 -86 67 -76 -23 28 -32 -33 15 -92 0
-142 82 0
-142 97 0
-142 -81 0
-142 -85 0
-142 -1 0
-142 86 0
-142 69 0
-142 14 0
-142 25 0
-142 18 0
142 -82 -97 81 85 1 -86 -69 -14 -25 -18 0
-143 -28 0
-143 86 0
-143 85 0
-143 51 0
-143 14 0
-143 -98 0
-143 -26 0
-143 -77 0
-143 46 0
-143 87 0
143 28 -86 -85 -51 -14 98 26 77 -46 -87 0
-144 31 0
-144 -51 0
-144 46 0
-144 69 0
-144 -44 0
-144 -71 0
-144 73 0
-144 92 0
-144 45 0
-144 -28 0
144 -31 51 -46 -69 44 71 -73 -92 -45 28 0
-145 94 0
-145 -44 0
-145 26 0
-145 80 0
-145 40 0
-145 43 0
-145 -97 0
-145 61 0
-145 -62 0
-145 16 0
145 -94 44 -26 -80 -40 -43 97 -61 62 -16 0
-146 25 0
-146 94 0
-146 -38 0
-146 35 0
-146 75 0
-146 96 0
-146 -60 0
-146 -64 0
-146 -57 0
-146 -71 0
146 -25 -94 38 -35 -75 -96 60 64 57 71 0
-147 89 0
-147 -73 0
-147 -77 0
-147 -88 0
-147 82 0
-147 14 0
-147 -83 0
-147 94 0
-147 -11 0
-147 -50 0
147 -89 73 77 88 -82 -14 83 -94 11 50 0
-148 100 0
-148 47 0
-148 -34 0
-148 -49 0
-148 4 0
-148 -62 0
-148 56 0
-148 -2 0
-148 -60 0
-148 -12 0
148 -100 -47 34 49 -4 62 -56 2 60 12 0
-149 -12 0
-149 28 0
-149 8 0
-149 93 0
-149 81 0
-149 50 0
-149 -36 0
-149 78 0
-149 -98 0
-149 96 0
149 12 -28 -8 -93 -81 -50 36 -78 98 -96 0
-150 -10 0
-150 -61 0
-150 65 0
-150 -81 0
-150 -21 0
-150 -29 0
-150 90 0
-150 -13 0
-150 93 0
-150 -97 0
150 10 61 -65 81 21 29 -90 13 -93 97 0
141 142 143 144 145 146 147 148 149 150 0
-151 -16 0
-151 -70 0
-151 -72 0
-151 -96 0
-151 -79 0
-151 -59 0
-151 -45 0
-151 -75 0
-151 -51 0
-151 -27 0
151 16 70 72 96 79 59 45 75 51 27 0
-152 -93 0
-152 -39 0
-152 -45 0
-152 46 0
-152 67 0
-152 20 0
-152 26 0
-152 -84 0
-152 40 0
-152 74 0
152 93 39 45 -46 -67 -20 -26 84 -40 -74 0
-153 54 0
-153 100 0
-153 -67 0
-153 18 0
-153 40 0
-153 -32 0
-153 4 0
-153 80 0
-153 42 0
-153 -41 0
153 -54 -100 67 -18 -40 32 -4 -80 -42 41 0
-154 -80 0
-154 -96 0
-154 66 0
-154 37 0
-154 25 0
-154 -14 0
-154 45 0
-154 20 0
-154 19 0
-154 -91 0
154 80 96 -66 -37 -25 14 -45 -20 -19 91 0
-155 -4 0
-155 77 0
-155 15 0
-155 79 0
-155 76 0
-155 57 0
-155 -36 0
-155 -23 0
-155 -25 0
-155 -24 0
155 4 -77 -15 -79 -76 -57 36 23 25 24 0
-156 6 0
-156 -58 0
-156 95 0
-156 20 0
-156 93 0
-156 -62 0
-156 85 0
-156 67 0
-156 -56 0
-156 -26 0
156 -6 58 -95 -20 -93 62 -85 -67 56 26 0
-157 51 0
-157 -30 0
-157 -24 0
-157 -78 0
-157 -21 0
-157 54 0
-157 -28 0
-157 40 0
-157 84 0
-157 -16 0
157 -51 30 24 78 21 -54 28 -40 -84 16 0
-158 88 0
-158 -75 0
-158 -38 0
-158 26 0
-158 -24 0
-158 -99 0
-158 -59 0
-158 -16 0
-158 -11 0
-158 -85 0
158 -88 75 38 -26 24 99 59 16 11 85 0
-159 76 0
-159 -34 0
-159 -70 0
-159 6 0
-159 37 0
-159 -54 0
-159 93 0
-159 -41 0
-159 -83 0
-159 -80 0
159 -76 34 70 -6 -37 54 -93 41 83 80 0
-160 -18 0
-160 19 0
-160 -8 0
-160 92 0
-160 -35 0
-160 -44 0
-160 76 0
-160 16 0
-160 -97 0
-160 21 0
160 18 -19 8 -92 35 44 -76 -16 97 -21 0
151 152 153 154 155 156 157 158 159 160 0
-161 100 0
-161 -53 0
-161 32 0
-161 20 0
-161 4 0
-161 -46 0
-161 -58 0
-161 -25 0
-161 68 0
-161 -97 0
161 -100 53 -32 -20 -4 46 58 25 -68 97 0
-162 -35 0
-162 -90 0
-162 -69 0
-162 -98 0
-162 62 0
-162 28 0
-162 99 0
-162 -60 0
-162 100 0
-162 33 0
162 35 90 69 98 -62 -28 -99 60 -100 -33 0
-163 41 0
-163 -70 0
-163 -92 0
-163 -33 0
-163 -5 0
-163 -35 0
-163 74 0
-163 25 0
-163 -26 0
-163 -51 0
163 -41 70 92 33 5 35 -74 -25 26 51 0
-164 -42 0
-164 -31 0
-164 64 0
-164 77 0
-164 88 0
-164 47 0
-164 -76 0
-164 -32 0
-164 -87 0
-164 -33 0
164 42 31 -64 -77 -88 -47 76 32 87 33 0
-165 50 0
-165 -24 0
-165 11 0
-165 73 0
-165 -12 0
-165 -44 0
-165 88 0
-165 -34 0
-165 53 0
-165 23 0
165 -50 24 -11 -73 12 44 -88 34 -53 -23 0
-166 -63 0
-166 40 0
-166 -25 0
-166 -48 0
-166 -86 0
-166 59 0
-166 -17 0
-166 8 0
-166 50 0
-166 52 0
166 63 -40 25 48 86 -59 17 -8 -50 -52 0
-167 73 0
-167 1 0
-167 2 0
-167 -91 0
-167 92 0
-167 39 0
-167 -6 0
-167 61 0
-167 16 0
-167 12 0
167 -73 -1 -2 91 -92 -39 6 -61 -16 -12 0
-168 -94 0
-168 -45 0
-168 100 0
-168 -52 0
-168 74 0
-168 -57 0
-168 -55 0
-168 -51 0
-168 -86 0
-168 -83 0
168 94 45 -100 52 -74 57 55 51 86 83 0
-169 4 0
-169 -52 0
-169 -81 0
-169 6 0
-169 -41 0
-169 17 0
-169 -75 0
-169 -88 0
-169 -22 0
-169 -31 0
169 -4 52 81 -6 41 -17 75 88 22 31 0
-170 8 0
-170 -95 0
-170 13 0
-170 -5 0
-170 -60 0
-170 -27 0
-170 25 0
-170 14 0
-170 71 0
-170 43 0
170 -8 95 -13 5 60 27 -25 -14 -71 -43 0
161 162 163 164 165 166 167 168 169 170 0
-171 -43 0
-171 -30 0
-171 -70 0
-171 -85 0
-171 29 0
-171 -38 0
-171 75 0
-171 -80 0
-171 -94 0
-171 -79 0
171 43 30 70 85 -29 38 -75 80 94 79 0
-172 53 0
-172 -35 0
-172 21 0
-172 -2 0
-172 -29 0
-172 4 0
-172 68 0
-172 83 0
-172 37 0
-172 56 0
172 -53 35 -21 2 29 -4 -68 -83 -37 -56 0
-173 -43 0
-173 -37 0
-173 95 0
-173 74 0
-173 -96 0
-173 -28 0
-173 -77 0
-173 97 0
-173 -50 0
-173 34 0
173 43 37 -95 -74 96 28 77 -97 50 -34 0
-174 -88 0
-174 23 0
-174 83 0
-174 -45 0
-174 -75 0
-174 74 0
-174 -35 0
-174 25 0
-174 95 0
-174 16 0
174 88 -23 -83 45 75 -74 35 -25 -95 -16 0
-175 -47 0
-175 20 0
-175 30 0
-175 -8 0
-175 -25 0
-175 -71 0
-175 9 0
-175 -44 0
-175 89 0
-175 55 0
175 47 -20 -30 8 25 71 -9 44 -89 -55 0
-176 -95 0
-176 -7 0
-176 99 0
-176 -30 0
-176 42 0
-176 98 0
-176 -53 0
-176 -34 0
-176 51 0
-176 12 0
176 95 7 -99 30 -42 -98 53 34 -51 -12 0
-177 -51 0
-177 -15 0
-177 -56 0
-177 63 0
-177 -3 0
-177 10 0
-177 -71 0
-177 -82 0
-177 -45 0
-177 13 0
177 51 15 56 -63 3 -10 71 82 45 -13 0
-178 -85 0
-178 35 0
-178 -53 0
-178 54 0
-178 81 0
-178 -76 0
-178 -25 0
-178 -94 0
-178 24 0
-178 -32 0
178 85 -35 53 -54 -81 76 25 94 -24 32 0
-179 -2 0
-179 -1 0
-179 -24 0
-179 29 0
-179 -59 0
-179 30 0
-179 55 0
-179 -56 0
-179 91 0
-179 45 0
179 2 1 24 -29 59 -30 -55 56 -91 -45 0
-180 -91 0
-180 10 0
-180 -82 0
-180 72 0
-180 -46 0
-180 -43 0
-180 32 0
-180 -21 0
-180 -53 0
-180 74 0
180 91 -10 82 -72 46 43 -32 21 53 -74 0
171 172 173 174 175 176 177 178 179 180 0
-181 -62 0
-181 5 0
-181 -73 0
-181 19 0
-181 -28 0
-181 48 0
-181 -27 0
-181 20 0
-181 4 0
-181 38 0
181 62 -5 73 -19 28 -48 27 -20 -4 -38 0
-182 66 0
-182 62 0
-182 -40 0
-182 20 0
-182 -87 0
-182 39 0
-182 -53 0
-182 84 0
-182 -93 0
-182 38 0
182 -66 -62 40 -20 87 -39 53 -84 93 -38 0
-183 53 0
-183 28 0
-183 66 0
-183 50 0
-183 18 0
-183 -96 0
-183 10 0
-183 47 0
-183 -95 0
-183 6 0
183 -53 -28 -66 -50 -18 96 -10 -47 95 -6 0
-184 -77 0
-184 -10 0
-184 -56 0
-184 -30 0
-184 -19 0
-184 79 0
-184 14 0
-184 -84 0
-184 55 0
-184 86 0
184 77 10 56 30 19 -79 -14 84 -55 -86 0
-185 97 0
-185 -59 0
-185 -74 0
-185 -17 0
-185 -84 0
-185 -38 0
-185 -19 0
-185 41 0
-185 45 0
-185 32 0
185 -97 59 74 17 84 38 19 -41 -45 -32 0
-186 46 0
-186 -50 0
-186 -19 0
-186 -13 0
-186 -79 0
-186 22 0
-186 -14 0
-186 40 0
-186 -94 0
-186 2 0
186 -46 50 19 13 79 -22 14 -40 94 -2 0
-187 6 0
-187 4 0
-187 10 0
-187 -62 0
-187 85 0
-187 61 0
-187 67 0
-187 -15 0
-187 -72 0
-187 -78 0
187 -6 -4 -10 62 -85 -61 -67 15 72 78 0
-188 -22 0
-188 28 0
-188 75 0
-188 -78 0
-188 -57 0
-188 15 0
-188 47 0
-188 61 0
-188 -81 0
-188 39 0
188 22 -28 -75 78 57 -15 -47 -61 81 -39 0
-189 81 0
-189 97 0
-189 26 0
-189 -86 0
-189 6 0
-189 23 0
-189 15 0
-189 22 0
-189 46 0
-189 30 0
189 -81 -97 -26 86 -6 -23 -15 -22 -46 -30 0
-190 56 0
-190 -25 0
-190 -87 0
-190 100 0
-190 17 0
-190 46 0
-190 20 0
-190 -69 0
-190 51 0
-190 -54 0
190 -56 25 87 -100 -17 -46 -20 69 -51 54 0
181 182 183 184 185 186 187 188 189 190 0
-191 45 0
-191 63 0
-191 46 0
-191 -96 0
-191 11 0
-191 97 0
-191 -14 0
-191 21 0
-191 28 0
-191 -13 0
191 -45 -63 -46 96 -11 -97 14 -21 -28 13 0
-192 57 0
-192 -44 0
-192 14 0
-192 38 0
-192 -31 0
-192 -55 0
-192 68 0
-192 51 0
-192 52 0
-192 -45 0
192 -57 44 -14 -38 31 55 -68 -51 -52 45 0
-193 45 0
-193 77 0
-193 -71 0
-193 -43 0
-193 -87 0
-193 -78 0
-193 68 0
-193 49 0
-193 -39 0
-193 81 0
193 -45 -77 71 43 87 78 -68 -49 39 -81 0
-194 -36 0
-194 -32 0
-194 37 0
-194 26 0
-194 -21 0
-194 27 0
-194 50 0
-194 17 0
-194 89 0
-194 20 0
194 36 32 -37 -26 21 -27 -50 -17 -89 -20 0
-195 -15 0
-195 -79 0
-195 -62 0
-195 -49 0
-195 -8 0
-195 -90 0
-195 76 0
-195 -5 0
-195 -12 0
-195 -39 0
195 15 79 62 49 8 90 -76 5 12 39 0
-196 -16 0
-196 -46 0
-196 -37 0
-196 36 0
-196 81 0
-196 62 0
-196 10 0
-196 -1 0
-196 -86 0
-196 -32 0
196 16 46 37 -36 -81 -62 -10 1 86 32 0
-197 -23 0
-197 -48 0
-197 89 0
-197 -62 0
-197 77 0
-197 -39 0
-197 -63 0
-197 70 0
-197 68 0
-197 22 0
197 23 48 -89 62 -77 39 63 -70 -68 -22 0
-198 86 0
-198 54 0
-198 58 0
-198 60 0
-198 -49 0
-198 30 0
-198 -23 0
-198 88 0
-198 -12 0
-198 -2 0
198 -86 -54 -58 -60 49 -30 23 -88 12 2 0
-199 -80 0
-199 85 0
-199 31 0
-199 -11 0
-199 -62 0
-199 4 0
-199 -37 0
-199 -92 0
-199 10 0
-199 2 0
199 80 -85 -31 11 62 -4 37 92 -10 -2 0
-200 39 0
-200 91 0
-200 12 0
-200 89 0
-200 -32 0
-200 43 0
-200 -26 0
-200 2 0
-200 63 0
-200 56 0
200 -39 -91 -12 -89 32 -43 26 -2 -63 -56 0
191 192 193 194 195 196 197 198 199 200 0
